
Gurobi 9.0.2 (mac64, Python) logging started Sat Nov  5 00:18:19 2022

Using license file /Users/muratilter/gurobi.lic
Set parameter LogFile to value 2.log
Academic license - for non-commercial use only
Read LP format model from file bestprincestd2.lp
Reading time = 0.01 seconds
: 1475 rows, 480 columns, 8960 nonzeros
Gurobi Optimizer version 9.0.2 build v9.0.2rc0 (mac64)
Optimize a model with 1475 rows, 480 columns and 8960 nonzeros
Model fingerprint: 0xc37c2711
Variable types: 0 continuous, 480 integer (480 binary)
Coefficient statistics:
  Matrix range     [1e+00, 1e+01]
  Objective range  [2e+00, 4e+00]
  Bounds range     [1e+00, 1e+00]
  RHS range        [1e+00, 4e+00]
Presolve removed 64 rows and 64 columns
Presolve time: 0.01s
Presolved: 1411 rows, 416 columns, 8832 nonzeros
Variable types: 0 continuous, 416 integer (416 binary)
Found heuristic solution: objective 18.0000000

Root relaxation: objective 3.818806e-01, 594 iterations, 0.02 seconds

    Nodes    |    Current Node    |     Objective Bounds      |     Work
 Expl Unexpl |  Obj  Depth IntInf | Incumbent    BestBd   Gap | It/Node Time

     0     0    0.38188    0   30   18.00000    0.38188  97.9%     -    0s
H    0     0                      10.0000000    0.38188  96.2%     -    0s
H    0     0                       8.0000000    0.38188  95.2%     -    0s
     0     0    0.38923    0   56    8.00000    0.38923  95.1%     -    0s
     0     0    0.40211    0  112    8.00000    0.40211  95.0%     -    0s
     0     0    0.42098    0  100    8.00000    0.42098  94.7%     -    0s
     0     0    0.42405    0   97    8.00000    0.42405  94.7%     -    0s
     0     0    0.60673    0   53    8.00000    0.60673  92.4%     -    0s
     0     0    0.62131    0  183    8.00000    0.62131  92.2%     -    0s
     0     0    0.85370    0  158    8.00000    0.85370  89.3%     -    0s
     0     0    0.86172    0  151    8.00000    0.86172  89.2%     -    0s
     0     0    0.99306    0  199    8.00000    0.99306  87.6%     -    0s
     0     0    0.99306    0  199    8.00000    0.99306  87.6%     -    0s
     0     2    0.99306    0  199    8.00000    0.99306  87.6%     -    0s

Cutting planes:
  Gomory: 4
  Cover: 11
  Clique: 7
  MIR: 6
  Zero half: 3

Explored 286 nodes (12238 simplex iterations) in 1.03 seconds
Thread count was 8 (of 8 available processors)

Solution count 3: 8 10 18 

Optimal solution found (tolerance 1.00e-04)
Best objective 8.000000000000e+00, best bound 8.000000000000e+00, gap 0.0000%
